Cost: 1719
0-39-35-33-27-28-25-26-42-23-22-18-16-20-7-9-8-40-0
0-41-6-10-43-11-12-13-15-17-14-19-21-1-2-0
0-3-4-5-44-31-30-29-32-36-37-38-0
Cost: 1719
0-39-35-33-27-28-25-26-42-23-22-18-16-20-7-9-8-40-0
0-41-6-10-43-11-12-13-15-17-14-19-21-1-2-0
0-3-4-5-44-31-30-29-32-36-37-38-0
Cost: 1719
0-39-35-33-27-28-25-26-42-23-22-18-16-20-7-9-8-40-0
0-41-6-10-43-11-12-13-15-17-14-19-21-1-2-0
0-3-4-5-44-31-30-29-32-36-37-38-0
Cost: 1719
0-3-4-5-44-31-30-29-32-36-37-0
0-35-33-27-28-25-26-42-23-22-18-16-20-9-8-40-39-38-0
0-41-6-7-10-43-11-12-13-15-17-14-19-21-1-2-0
Cost: 1719
0-3-4-5-44-31-30-29-32-36-37-38-0
0-41-6-7-10-43-11-12-13-15-17-14-19-21-1-2-0
0-39-35-33-27-28-25-26-42-23-22-18-16-20-9-8-40-0
Cost: 1719
0-35-33-27-28-25-26-42-23-22-18-16-20-7-9-8-40-39-0
0-41-6-10-43-11-12-13-15-17-14-19-21-1-2-0
0-3-4-5-44-31-30-29-32-36-37-38-0
Cost: 1719
0-3-4-5-44-31-30-29-32-36-37-38-0
0-39-35-33-27-28-25-26-42-23-22-18-16-17-20-9-8-40-0
0-41-6-7-10-43-11-12-13-15-14-19-21-1-2-0
Cost: 1719
0-3-4-5-44-31-30-29-32-36-37-0
0-38-35-33-27-28-25-26-42-23-22-18-16-20-9-8-40-39-0
0-41-6-7-10-43-11-12-13-15-17-14-19-21-1-2-0
Cost: 1719
0-39-35-33-27-28-25-26-42-23-22-18-16-17-20-9-8-40-0
0-41-6-7-10-43-11-12-13-15-14-19-21-44-1-2-0
0-3-4-5-31-30-29-32-36-37-38-0
Cost: 1719
0-41-6-10-43-11-12-13-15-17-14-19-21-1-2-0
0-3-4-5-44-31-30-29-32-36-37-38-0
0-39-35-33-27-28-25-26-42-23-22-18-16-20-7-9-8-40-0
Cost: 1719
0-3-4-5-44-31-30-29-32-36-37-38-0
0-41-6-7-10-43-11-12-13-15-14-19-21-1-2-0
0-35-33-27-28-25-26-42-23-22-18-16-17-20-9-8-40-39-0
Cost: 1719
0-3-4-5-44-31-30-29-32-36-37-0
0-41-6-7-10-43-11-12-13-15-17-14-19-21-1-2-0
0-38-35-33-27-28-25-26-42-23-22-18-16-20-9-8-40-39-0
Cost: 1719
0-35-33-27-28-25-26-42-23-22-18-16-17-20-9-8-40-39-0
0-3-4-5-31-30-29-32-36-37-38-0
0-41-6-7-10-43-11-12-13-15-14-19-21-44-1-2-0
Cost: 1719
0-39-35-33-27-28-25-26-42-23-22-18-16-20-9-8-40-38-0
0-41-6-7-10-43-11-12-13-15-17-14-19-21-1-2-0
0-3-4-5-44-31-30-29-32-36-37-0
Cost: 1719
0-41-6-7-10-43-11-12-13-15-14-19-21-44-1-2-0
0-3-4-5-31-30-29-32-36-37-38-0
0-35-33-27-28-25-26-42-23-22-18-16-17-20-9-8-40-39-0
Cost: 1719
0-41-6-7-10-43-11-12-13-15-17-14-19-21-1-2-0
0-3-4-5-44-31-30-29-32-36-37-38-0
0-39-35-33-27-28-25-26-42-23-22-18-16-20-9-8-40-0
Cost: 1719
0-3-4-5-44-31-30-29-32-36-37-0
0-41-6-7-10-43-11-12-13-15-17-14-19-21-1-2-0
0-38-35-33-27-28-25-26-42-23-22-18-16-20-9-8-40-39-0
Cost: 1719
0-39-35-33-27-28-25-26-42-23-22-18-16-20-7-9-8-40-0
0-41-6-10-43-11-12-13-15-17-14-19-21-1-2-0
0-3-4-5-44-31-30-29-32-36-37-38-0
Cost: 1719
0-41-6-7-10-43-11-12-13-15-17-14-19-21-1-2-0
0-3-4-5-44-31-30-29-32-36-37-38-0
0-39-35-33-27-28-25-26-42-23-22-18-16-20-9-8-40-0
Cost: 1719
0-3-4-5-44-31-30-29-36-37-38-0
0-39-35-32-33-27-28-25-26-42-23-22-18-16-20-9-8-40-0
0-41-6-7-10-43-11-12-13-15-17-14-19-21-1-2-0
Cost: 1719
0-41-6-7-10-43-11-12-13-15-17-14-19-21-1-2-0
0-3-4-5-44-31-30-29-32-36-37-38-0
0-39-35-33-27-28-25-26-42-23-22-18-16-20-9-8-40-0
Cost: 1719
0-35-33-27-28-25-26-42-23-22-18-16-17-20-9-8-40-39-0
0-41-6-7-10-43-11-12-13-15-14-19-21-44-1-2-0
0-3-4-5-31-30-29-32-36-37-38-0
Cost: 1719
0-35-33-27-28-25-26-42-23-22-18-16-17-20-9-8-40-39-0
0-41-6-7-10-43-11-12-13-15-14-19-21-44-1-2-0
0-3-4-5-31-30-29-32-36-37-38-0
Cost: 1719
0-38-35-33-27-28-25-26-42-23-22-18-16-20-9-8-40-39-0
0-3-4-5-44-31-30-29-32-36-37-0
0-41-6-7-10-43-11-12-13-15-17-14-19-21-1-2-0
Cost: 1719
0-39-35-33-27-28-25-26-42-23-22-18-16-17-20-9-8-40-0
0-41-6-7-10-43-11-12-13-15-14-19-21-1-2-0
0-3-4-5-44-31-30-29-32-36-37-38-0
Cost: 1719
0-38-35-33-27-28-25-26-42-23-22-18-16-20-9-8-40-39-0
0-41-6-7-10-43-11-12-13-15-17-14-19-21-1-2-0
0-3-4-5-44-31-30-29-32-36-37-0
Cost: 1719
0-39-35-33-27-28-25-26-42-23-22-18-16-17-20-9-8-40-0
0-41-6-7-10-43-11-12-13-15-14-19-21-1-2-0
0-3-4-5-44-31-30-29-32-36-37-38-0
Cost: 1719
0-41-6-7-10-43-11-12-13-15-17-14-19-21-1-2-0
0-3-4-5-44-31-30-29-32-36-37-38-0
0-39-35-33-27-28-25-26-42-23-22-18-16-20-9-8-40-0
Cost: 1719
0-3-4-5-44-31-30-29-32-36-37-38-0
0-41-6-7-10-43-11-12-13-15-17-14-20-9-8-40-39-0
0-35-33-27-28-25-26-42-23-22-18-16-19-21-1-2-0
Cost: 1719
0-3-4-5-44-31-30-29-32-36-37-38-0
0-41-6-7-10-43-11-12-13-15-17-14-20-9-8-40-39-0
0-35-33-27-28-25-26-42-23-22-18-16-19-21-1-2-0
Cost: 1719
0-3-4-5-31-30-29-32-36-37-38-0
0-35-33-27-28-25-26-42-23-22-18-16-17-20-9-8-40-39-0
0-41-6-7-10-43-11-12-13-15-14-19-21-44-1-2-0
Cost: 1719
0-35-33-27-28-25-26-42-23-22-18-16-20-7-9-8-40-39-0
0-3-4-5-44-31-30-29-32-36-37-38-0
0-41-6-10-43-11-12-13-15-17-14-19-21-1-2-0
Cost: 1725
0-39-41-6-7-9-8-40-34-36-37-38-0
0-5-20-10-43-11-12-13-15-17-18-16-14-19-21-44-1-0
0-3-4-2-31-30-29-26-42-23-24-25-27-28-32-35-0
Cost: 1719
0-35-32-33-27-28-25-26-42-23-22-18-16-20-9-8-40-39-0
0-41-6-7-10-43-11-12-13-15-17-14-19-21-1-2-0
0-3-4-5-44-31-30-29-36-37-38-0
Cost: 1719
0-35-32-33-27-28-25-26-42-23-22-18-16-20-9-8-40-39-0
0-41-6-7-10-43-11-12-13-15-17-14-19-21-1-2-0
0-3-4-5-44-31-30-29-36-37-38-0
Cost: 1719
0-35-33-27-28-25-26-42-23-22-18-16-20-9-8-40-39-0
0-3-4-5-44-31-30-29-32-36-37-38-0
0-41-6-7-10-43-11-12-13-15-17-14-19-21-1-2-0
